language ESSENCE' 1.0
letting lastdx=94
letting cage be [
[1,5,6,0,0, 0,0, 0,0, 0,0],
[11,11,11,0,0, 0,0, 0,0, 0,0],
[6,6,6,0,0, 0,0, 0,0, 0,0],
[10,7,8,0,0, 0,0, 0,0, 0,0],
[2,4,7,0,0, 0,0, 0,0, 0,0],
[10,5,13,0,0, 0,0, 0,0, 0,0],
[6,16,16,0,0, 0,0, 0,0, 0,0],
[5,4,3,0,0, 0,0, 0,0, 0,0],
[48,16,10,16,9,15,9,14,9,14,10],
[27,1,14,1,13,1,12,0,0, 0,0],
[14,16,2,0,0, 0,0, 0,0, 0,0],
[24,7,2,6,2,5,2,0,0, 0,0],
[11,3,8,0,0, 0,0, 0,0, 0,0],
[9,3,12,0,0, 0,0, 0,0, 0,0],
[38,13,15,13,16,14,16,15,16,0,0],
[54,10,2,10,3,11,3,12,3,12,4],
[30,16,4,16,5,16,6,15,6,0,0],
[3,16,11,0,0, 0,0, 0,0, 0,0],
[11,8,4,8,3,0,0, 0,0, 0,0],
[3,14,13,0,0, 0,0, 0,0, 0,0],
[8,5,10,0,0, 0,0, 0,0, 0,0],
[11,2,14,2,15,0,0, 0,0, 0,0],
[4,16,15,0,0, 0,0, 0,0, 0,0],
[13,6,16,0,0, 0,0, 0,0, 0,0],
[37,2,2,2,1,1,1,1,2,1,3],
[43,13,2,12,2,12,1,11,1,11,2],
[11,4,13,0,0, 0,0, 0,0, 0,0],
[23,13,11,12,11,0,0, 0,0, 0,0],
[39,10,13,11,13,12,13,13,13,0,0],
[41,8,8,8,9,9,9,10,9,11,9],
[48,4,5,4,6,3,6,2,6,2,5],
[8,3,9,0,0, 0,0, 0,0, 0,0],
[13,10,11,0,0, 0,0, 0,0, 0,0],
[22,14,1,13,1,0,0, 0,0, 0,0],
[1,14,12,0,0, 0,0, 0,0, 0,0],
[45,2,13,3,13,3,14,3,15,4,15],
[19,13,8,12,8,0,0, 0,0, 0,0],
[12,7,5,6,5,0,0, 0,0, 0,0],
[15,2,16,0,0, 0,0, 0,0, 0,0],
[25,7,11,7,12,8,12,0,0, 0,0],
[23,9,13,8,13,7,13,6,13,0,0],
[4,4,2,0,0, 0,0, 0,0, 0,0],
[8,10,15,0,0, 0,0, 0,0, 0,0],
[9,1,16,1,15,0,0, 0,0, 0,0],
[19,6,10,6,9,0,0, 0,0, 0,0],
[51,8,14,8,15,9,15,9,16,8,16],
[26,13,10,12,10,11,10,10,10,0,0],
[44,15,7,14,7,14,6,13,6,12,6],
[13,4,1,0,0, 0,0, 0,0, 0,0],
[32,8,1,7,1,6,1,5,1,0,0],
[11,1,10,1,11,0,0, 0,0, 0,0],
[14,2,12,0,0, 0,0, 0,0, 0,0],
[28,3,4,3,5,0,0, 0,0, 0,0],
[18,10,14,9,14,0,0, 0,0, 0,0],
[48,16,7,16,8,15,8,14,8,0,0],
[11,1,4,0,0, 0,0, 0,0, 0,0],
[14,9,5,0,0, 0,0, 0,0, 0,0],
[37,11,14,12,14,13,14,14,14,0,0],
[35,6,11,5,11,4,11,3,11,3,10],
[12,12,7,13,7,0,0, 0,0, 0,0],
[41,2,4,2,3,3,3,3,2,3,1],
[35,6,15,5,15,5,16,0,0, 0,0],
[14,13,9,12,9,0,0, 0,0, 0,0],
[30,14,11,15,11,15,10,0,0, 0,0],
[26,14,15,15,15,15,14,16,14,0,0],
[14,7,15,7,16,0,0, 0,0, 0,0],
[58,6,8,6,7,5,7,7,7,7,6],
[27,7,14,6,14,5,14,4,14,0,0],
[49,9,10,9,11,9,12,10,12,11,12],
[36,8,10,8,11,7,10,7,9,0,0],
[4,3,7,2,7,0,0, 0,0, 0,0],
[34,5,3,6,3,6,4,0,0, 0,0],
[12,12,5,13,5,0,0, 0,0, 0,0],
[34,4,4,5,4,5,5,0,0, 0,0],
[8,1,5,0,0, 0,0, 0,0, 0,0],
[22,1,6,1,7,0,0, 0,0, 0,0],
[16,1,8,0,0, 0,0, 0,0, 0,0],
[22,1,9,2,9,2,8,0,0, 0,0],
[29,2,10,2,11,0,0, 0,0, 0,0],
[22,3,16,4,16,0,0, 0,0, 0,0],
[23,4,12,5,12,6,12,0,0, 0,0],
[20,7,3,7,4,0,0, 0,0, 0,0],
[3,8,2,0,0, 0,0, 0,0, 0,0],
[23,9,1,10,1,9,2,9,3,0,0],
[16,9,6,0,0, 0,0, 0,0, 0,0],
[2,10,6,0,0, 0,0, 0,0, 0,0],
[10,10,7,0,0, 0,0, 0,0, 0,0],
[33,10,8,11,8,11,7,11,6,0,0],
[5,10,16,11,16,0,0, 0,0, 0,0],
[32,11,15,12,15,12,16,0,0, 0,0],
[16,12,12,13,12,0,0, 0,0, 0,0],
[9,13,3,0,0, 0,0, 0,0, 0,0],
[48,14,2,14,3,15,3,15,4,16,3],
[27,15,1,15,2,16,1,0,0, 0,0],
[39,15,12,15,13,16,13,16,12,0,0]
]
